(set-logic ALL)
; benchmark generated from python API
(set-info :status unknown)
(declare-datatypes ((Proc 0)) (((foo_func) (coinbase))))
(declare-fun w_0 () Int)
(declare-fun success_1 () Bool)
(declare-fun t_success_0_0 () Bool)
(declare-fun aw_0_2 () Int)
(declare-fun aw_1_2 () Int)
(declare-fun aw_0_1 () Int)
(declare-fun aw_1_1 () Int)
(declare-fun aw_0_0 () Int)
(declare-fun aw_1_0 () Int)
(declare-fun t_w_0_0 () Int)
(declare-fun w_1 () Int)
(declare-fun err_1 () Bool)
(declare-fun xn_0 () Int)
(declare-fun xa_0 () Int)
(declare-fun success_2 () Bool)
(declare-fun t_success_1_0 () Bool)
(declare-fun aw_2_2 () Int)
(declare-fun aw_2_1 () Int)
(declare-fun aw_2_0 () Int)
(declare-fun t_w_1_0 () Int)
(declare-fun w_2 () Int)
(declare-fun err_2 () Bool)
(declare-fun xn_1 () Int)
(declare-fun xa_1 () Int)
(declare-fun f_1 () Proc)
(declare-fun block_num_1 () Int)
(declare-fun block_num_2 () Int)
(declare-fun success_3 () Bool)
(declare-fun t_success_2_0 () Bool)
(declare-fun aw_3_2 () Int)
(declare-fun aw_3_1 () Int)
(declare-fun aw_3_0 () Int)
(declare-fun t_w_2_0 () Int)
(declare-fun w_3 () Int)
(declare-fun err_3 () Bool)
(declare-fun xn_2 () Int)
(declare-fun xa_2 () Int)
(declare-fun f_2 () Proc)
(declare-fun block_num_3 () Int)
(declare-fun success_4 () Bool)
(declare-fun t_success_3_0 () Bool)
(declare-fun aw_4_2 () Int)
(declare-fun aw_4_1 () Int)
(declare-fun aw_4_0 () Int)
(declare-fun t_w_3_0 () Int)
(declare-fun w_4 () Int)
(declare-fun err_4 () Bool)
(declare-fun xn_3 () Int)
(declare-fun xa_3 () Int)
(declare-fun f_3 () Proc)
(declare-fun block_num_4 () Int)
(declare-fun success_5 () Bool)
(declare-fun t_success_4_0 () Bool)
(declare-fun aw_5_2 () Int)
(declare-fun aw_5_1 () Int)
(declare-fun aw_5_0 () Int)
(declare-fun t_w_4_0 () Int)
(declare-fun w_5 () Int)
(declare-fun err_5 () Bool)
(declare-fun xn_4 () Int)
(declare-fun xa_4 () Int)
(declare-fun f_4 () Proc)
(declare-fun block_num_5 () Int)
(declare-fun success_6 () Bool)
(declare-fun t_success_5_0 () Bool)
(declare-fun aw_6_2 () Int)
(declare-fun aw_6_1 () Int)
(declare-fun aw_6_0 () Int)
(declare-fun t_w_5_0 () Int)
(declare-fun w_6 () Int)
(declare-fun err_6 () Bool)
(declare-fun xn_5 () Int)
(declare-fun xa_5 () Int)
(declare-fun f_5 () Proc)
(declare-fun block_num_6 () Int)
(declare-fun success_7 () Bool)
(declare-fun t_success_6_0 () Bool)
(declare-fun aw_7_2 () Int)
(declare-fun aw_7_1 () Int)
(declare-fun aw_7_0 () Int)
(declare-fun t_w_6_0 () Int)
(declare-fun w_7 () Int)
(declare-fun err_7 () Bool)
(declare-fun xn_6 () Int)
(declare-fun xa_6 () Int)
(declare-fun f_6 () Proc)
(declare-fun block_num_7 () Int)
(declare-fun success_8 () Bool)
(declare-fun t_success_7_0 () Bool)
(declare-fun aw_8_2 () Int)
(declare-fun aw_8_1 () Int)
(declare-fun aw_8_0 () Int)
(declare-fun t_w_7_0 () Int)
(declare-fun w_8 () Int)
(declare-fun err_8 () Bool)
(declare-fun xn_7 () Int)
(declare-fun xa_7 () Int)
(declare-fun f_7 () Proc)
(declare-fun block_num_8 () Int)
(declare-fun success_9 () Bool)
(declare-fun t_success_8_0 () Bool)
(declare-fun aw_9_2 () Int)
(declare-fun aw_9_1 () Int)
(declare-fun aw_9_0 () Int)
(declare-fun t_w_8_0 () Int)
(declare-fun w_9 () Int)
(declare-fun err_9 () Bool)
(declare-fun xn_8 () Int)
(declare-fun xa_8 () Int)
(declare-fun f_8 () Proc)
(declare-fun block_num_9 () Int)
(declare-fun success_10 () Bool)
(declare-fun t_success_9_0 () Bool)
(declare-fun aw_10_2 () Int)
(declare-fun aw_10_1 () Int)
(declare-fun aw_10_0 () Int)
(declare-fun t_w_9_0 () Int)
(declare-fun w_10 () Int)
(declare-fun err_10 () Bool)
(declare-fun xn_9 () Int)
(declare-fun xa_9 () Int)
(declare-fun f_9 () Proc)
(declare-fun block_num_10 () Int)
(declare-fun success_11 () Bool)
(declare-fun t_success_10_0 () Bool)
(declare-fun aw_11_2 () Int)
(declare-fun aw_11_1 () Int)
(declare-fun aw_11_0 () Int)
(declare-fun t_w_10_0 () Int)
(declare-fun w_11 () Int)
(declare-fun err_11 () Bool)
(declare-fun xn_10 () Int)
(declare-fun xa_10 () Int)
(declare-fun f_10 () Proc)
(declare-fun block_num_11 () Int)
(declare-fun success_12 () Bool)
(declare-fun t_success_11_0 () Bool)
(declare-fun aw_12_2 () Int)
(declare-fun aw_12_1 () Int)
(declare-fun aw_12_0 () Int)
(declare-fun t_w_11_0 () Int)
(declare-fun w_12 () Int)
(declare-fun err_12 () Bool)
(declare-fun xn_11 () Int)
(declare-fun xa_11 () Int)
(declare-fun f_11 () Proc)
(declare-fun block_num_12 () Int)
(assert
 (>= w_0 0))
(assert
 (let (($x3685 (= t_success_0_0 success_1)))
 (let (($x3683 (= aw_1_2 aw_0_2)))
 (let (($x3682 (= aw_1_1 aw_0_1)))
 (let (($x3681 (= aw_1_0 aw_0_0)))
 (let (($x3680 (= w_1 t_w_0_0)))
 (let (($x3687 (and (> xn_0 0) (= err_1 false) true (= t_success_0_0 false) (and $x3680 (and $x3681 $x3682 $x3683) $x3685))))
 (and (and (>= xa_0 0) (<= xa_0 2) (>= xn_0 0)) (and (>= aw_0_0 0) (>= aw_0_1 0) (>= aw_0_2 0)) (and (= t_w_0_0 (+ w_0 xn_0)) $x3687)))))))))
(assert
 (let (($x3731 (= t_success_1_0 success_2)))
 (let (($x3714 (= aw_2_2 aw_1_2)))
 (let (($x3713 (= aw_2_1 aw_1_1)))
 (let (($x3712 (= aw_2_0 aw_1_0)))
 (let (($x3715 (and $x3712 $x3713 $x3714)))
 (let (($x3711 (= w_2 t_w_1_0)))
 (let (($x3708 (= err_2 false)))
 (let (($x3730 (ite (and (>= t_w_1_0 10)) (and (= t_success_1_0 true) true) (and true true (= t_success_1_0 success_1)))))
 (let (($x3710 (= t_w_1_0 (+ w_1 xn_1))))
 (let (($x3722 (<= xa_1 2)))
 (let (($x3721 (>= xa_1 1)))
 (let (($x3735 (and $x3721 $x3722 (and $x3710 (and $x3730 $x3708 true (and $x3711 $x3715 $x3731))))))
 (let (($x3707 (= xa_1 0)))
 (let (($x3719 (and $x3707 (and $x3708 $x3710 (and $x3711 $x3715 (= success_1 success_2))))))
 (let (($x3706 (= f_1 coinbase)))
 (and (and (>= xn_1 0) (>= w_2 0)) (and (>= aw_1_0 0) (>= aw_1_1 0) (>= aw_1_2 0)) (>= block_num_2 block_num_1) (ite $x3706 $x3719 $x3735))))))))))))))))))
(assert
 (let (($x3780 (= t_success_2_0 success_3)))
 (let (($x3765 (= aw_3_2 aw_2_2)))
 (let (($x3764 (= aw_3_1 aw_2_1)))
 (let (($x3763 (= aw_3_0 aw_2_0)))
 (let (($x3766 (and $x3763 $x3764 $x3765)))
 (let (($x3762 (= w_3 t_w_2_0)))
 (let (($x3759 (= err_3 false)))
 (let (($x3779 (ite (and (>= t_w_2_0 10)) (and (= t_success_2_0 true) true) (and true true (= t_success_2_0 success_2)))))
 (let (($x3761 (= t_w_2_0 (+ w_2 xn_2))))
 (let (($x3772 (<= xa_2 2)))
 (let (($x3771 (>= xa_2 1)))
 (let (($x3784 (and $x3771 $x3772 (and $x3761 (and $x3779 $x3759 true (and $x3762 $x3766 $x3780))))))
 (let (($x3758 (= xa_2 0)))
 (let (($x3770 (and $x3758 (and $x3759 $x3761 (and $x3762 $x3766 (= success_2 success_3))))))
 (let (($x3757 (= f_2 coinbase)))
 (and (and (>= xn_2 0) (>= w_3 0)) (and (>= aw_2_0 0) (>= aw_2_1 0) (>= aw_2_2 0)) (>= block_num_3 block_num_2) (ite $x3757 $x3770 $x3784))))))))))))))))))
(assert
 (let (($x3829 (= t_success_3_0 success_4)))
 (let (($x3814 (= aw_4_2 aw_3_2)))
 (let (($x3813 (= aw_4_1 aw_3_1)))
 (let (($x3812 (= aw_4_0 aw_3_0)))
 (let (($x3815 (and $x3812 $x3813 $x3814)))
 (let (($x3811 (= w_4 t_w_3_0)))
 (let (($x3808 (= err_4 false)))
 (let (($x3828 (ite (and (>= t_w_3_0 10)) (and (= t_success_3_0 true) true) (and true true (= t_success_3_0 success_3)))))
 (let (($x3810 (= t_w_3_0 (+ w_3 xn_3))))
 (let (($x3821 (<= xa_3 2)))
 (let (($x3820 (>= xa_3 1)))
 (let (($x3833 (and $x3820 $x3821 (and $x3810 (and $x3828 $x3808 true (and $x3811 $x3815 $x3829))))))
 (let (($x3807 (= xa_3 0)))
 (let (($x3819 (and $x3807 (and $x3808 $x3810 (and $x3811 $x3815 (= success_3 success_4))))))
 (let (($x3806 (= f_3 coinbase)))
 (and (and (>= xn_3 0) (>= w_4 0)) (and (>= aw_3_0 0) (>= aw_3_1 0) (>= aw_3_2 0)) (>= block_num_4 block_num_3) (ite $x3806 $x3819 $x3833))))))))))))))))))
(assert
 (let (($x3878 (= t_success_4_0 success_5)))
 (let (($x3863 (= aw_5_2 aw_4_2)))
 (let (($x3862 (= aw_5_1 aw_4_1)))
 (let (($x3861 (= aw_5_0 aw_4_0)))
 (let (($x3864 (and $x3861 $x3862 $x3863)))
 (let (($x3860 (= w_5 t_w_4_0)))
 (let (($x3857 (= err_5 false)))
 (let (($x3877 (ite (and (>= t_w_4_0 10)) (and (= t_success_4_0 true) true) (and true true (= t_success_4_0 success_4)))))
 (let (($x3859 (= t_w_4_0 (+ w_4 xn_4))))
 (let (($x3870 (<= xa_4 2)))
 (let (($x3869 (>= xa_4 1)))
 (let (($x3882 (and $x3869 $x3870 (and $x3859 (and $x3877 $x3857 true (and $x3860 $x3864 $x3878))))))
 (let (($x3856 (= xa_4 0)))
 (let (($x3868 (and $x3856 (and $x3857 $x3859 (and $x3860 $x3864 (= success_4 success_5))))))
 (let (($x3855 (= f_4 coinbase)))
 (and (and (>= xn_4 0) (>= w_5 0)) (and (>= aw_4_0 0) (>= aw_4_1 0) (>= aw_4_2 0)) (>= block_num_5 block_num_4) (ite $x3855 $x3868 $x3882))))))))))))))))))
(assert
 (let (($x3927 (= t_success_5_0 success_6)))
 (let (($x3912 (= aw_6_2 aw_5_2)))
 (let (($x3911 (= aw_6_1 aw_5_1)))
 (let (($x3910 (= aw_6_0 aw_5_0)))
 (let (($x3913 (and $x3910 $x3911 $x3912)))
 (let (($x3909 (= w_6 t_w_5_0)))
 (let (($x3906 (= err_6 false)))
 (let (($x3926 (ite (and (>= t_w_5_0 10)) (and (= t_success_5_0 true) true) (and true true (= t_success_5_0 success_5)))))
 (let (($x3908 (= t_w_5_0 (+ w_5 xn_5))))
 (let (($x3919 (<= xa_5 2)))
 (let (($x3918 (>= xa_5 1)))
 (let (($x3931 (and $x3918 $x3919 (and $x3908 (and $x3926 $x3906 true (and $x3909 $x3913 $x3927))))))
 (let (($x3905 (= xa_5 0)))
 (let (($x3917 (and $x3905 (and $x3906 $x3908 (and $x3909 $x3913 (= success_5 success_6))))))
 (let (($x3904 (= f_5 coinbase)))
 (and (and (>= xn_5 0) (>= w_6 0)) (and (>= aw_5_0 0) (>= aw_5_1 0) (>= aw_5_2 0)) (>= block_num_6 block_num_5) (ite $x3904 $x3917 $x3931))))))))))))))))))
(assert
 (let (($x3976 (= t_success_6_0 success_7)))
 (let (($x3961 (= aw_7_2 aw_6_2)))
 (let (($x3960 (= aw_7_1 aw_6_1)))
 (let (($x3959 (= aw_7_0 aw_6_0)))
 (let (($x3962 (and $x3959 $x3960 $x3961)))
 (let (($x3958 (= w_7 t_w_6_0)))
 (let (($x3955 (= err_7 false)))
 (let (($x3975 (ite (and (>= t_w_6_0 10)) (and (= t_success_6_0 true) true) (and true true (= t_success_6_0 success_6)))))
 (let (($x3957 (= t_w_6_0 (+ w_6 xn_6))))
 (let (($x3968 (<= xa_6 2)))
 (let (($x3967 (>= xa_6 1)))
 (let (($x3980 (and $x3967 $x3968 (and $x3957 (and $x3975 $x3955 true (and $x3958 $x3962 $x3976))))))
 (let (($x3954 (= xa_6 0)))
 (let (($x3966 (and $x3954 (and $x3955 $x3957 (and $x3958 $x3962 (= success_6 success_7))))))
 (let (($x3953 (= f_6 coinbase)))
 (and (and (>= xn_6 0) (>= w_7 0)) (and (>= aw_6_0 0) (>= aw_6_1 0) (>= aw_6_2 0)) (>= block_num_7 block_num_6) (ite $x3953 $x3966 $x3980))))))))))))))))))
(assert
 (let (($x4025 (= t_success_7_0 success_8)))
 (let (($x4010 (= aw_8_2 aw_7_2)))
 (let (($x4009 (= aw_8_1 aw_7_1)))
 (let (($x4008 (= aw_8_0 aw_7_0)))
 (let (($x4011 (and $x4008 $x4009 $x4010)))
 (let (($x4007 (= w_8 t_w_7_0)))
 (let (($x4004 (= err_8 false)))
 (let (($x4024 (ite (and (>= t_w_7_0 10)) (and (= t_success_7_0 true) true) (and true true (= t_success_7_0 success_7)))))
 (let (($x4006 (= t_w_7_0 (+ w_7 xn_7))))
 (let (($x4017 (<= xa_7 2)))
 (let (($x4016 (>= xa_7 1)))
 (let (($x4029 (and $x4016 $x4017 (and $x4006 (and $x4024 $x4004 true (and $x4007 $x4011 $x4025))))))
 (let (($x4003 (= xa_7 0)))
 (let (($x4015 (and $x4003 (and $x4004 $x4006 (and $x4007 $x4011 (= success_7 success_8))))))
 (let (($x4002 (= f_7 coinbase)))
 (and (and (>= xn_7 0) (>= w_8 0)) (and (>= aw_7_0 0) (>= aw_7_1 0) (>= aw_7_2 0)) (>= block_num_8 block_num_7) (ite $x4002 $x4015 $x4029))))))))))))))))))
(assert
 (let (($x4074 (= t_success_8_0 success_9)))
 (let (($x4059 (= aw_9_2 aw_8_2)))
 (let (($x4058 (= aw_9_1 aw_8_1)))
 (let (($x4057 (= aw_9_0 aw_8_0)))
 (let (($x4060 (and $x4057 $x4058 $x4059)))
 (let (($x4056 (= w_9 t_w_8_0)))
 (let (($x4053 (= err_9 false)))
 (let (($x4073 (ite (and (>= t_w_8_0 10)) (and (= t_success_8_0 true) true) (and true true (= t_success_8_0 success_8)))))
 (let (($x4055 (= t_w_8_0 (+ w_8 xn_8))))
 (let (($x4066 (<= xa_8 2)))
 (let (($x4065 (>= xa_8 1)))
 (let (($x4078 (and $x4065 $x4066 (and $x4055 (and $x4073 $x4053 true (and $x4056 $x4060 $x4074))))))
 (let (($x4052 (= xa_8 0)))
 (let (($x4064 (and $x4052 (and $x4053 $x4055 (and $x4056 $x4060 (= success_8 success_9))))))
 (let (($x4051 (= f_8 coinbase)))
 (and (and (>= xn_8 0) (>= w_9 0)) (and (>= aw_8_0 0) (>= aw_8_1 0) (>= aw_8_2 0)) (>= block_num_9 block_num_8) (ite $x4051 $x4064 $x4078))))))))))))))))))
(assert
 (let (($x4123 (= t_success_9_0 success_10)))
 (let (($x4108 (= aw_10_2 aw_9_2)))
 (let (($x4107 (= aw_10_1 aw_9_1)))
 (let (($x4106 (= aw_10_0 aw_9_0)))
 (let (($x4109 (and $x4106 $x4107 $x4108)))
 (let (($x4105 (= w_10 t_w_9_0)))
 (let (($x4102 (= err_10 false)))
 (let (($x4122 (ite (and (>= t_w_9_0 10)) (and (= t_success_9_0 true) true) (and true true (= t_success_9_0 success_9)))))
 (let (($x4104 (= t_w_9_0 (+ w_9 xn_9))))
 (let (($x4115 (<= xa_9 2)))
 (let (($x4114 (>= xa_9 1)))
 (let (($x4127 (and $x4114 $x4115 (and $x4104 (and $x4122 $x4102 true (and $x4105 $x4109 $x4123))))))
 (let (($x4101 (= xa_9 0)))
 (let (($x4113 (and $x4101 (and $x4102 $x4104 (and $x4105 $x4109 (= success_9 success_10))))))
 (let (($x4100 (= f_9 coinbase)))
 (and (and (>= xn_9 0) (>= w_10 0)) (and (>= aw_9_0 0) (>= aw_9_1 0) (>= aw_9_2 0)) (>= block_num_10 block_num_9) (ite $x4100 $x4113 $x4127))))))))))))))))))
(assert
 (let (($x4172 (= t_success_10_0 success_11)))
 (let (($x4157 (= aw_11_2 aw_10_2)))
 (let (($x4156 (= aw_11_1 aw_10_1)))
 (let (($x4155 (= aw_11_0 aw_10_0)))
 (let (($x4158 (and $x4155 $x4156 $x4157)))
 (let (($x4154 (= w_11 t_w_10_0)))
 (let (($x4151 (= err_11 false)))
 (let (($x4171 (ite (and (>= t_w_10_0 10)) (and (= t_success_10_0 true) true) (and true true (= t_success_10_0 success_10)))))
 (let (($x4153 (= t_w_10_0 (+ w_10 xn_10))))
 (let (($x4164 (<= xa_10 2)))
 (let (($x4163 (>= xa_10 1)))
 (let (($x4176 (and $x4163 $x4164 (and $x4153 (and $x4171 $x4151 true (and $x4154 $x4158 $x4172))))))
 (let (($x4150 (= xa_10 0)))
 (let (($x4162 (and $x4150 (and $x4151 $x4153 (and $x4154 $x4158 (= success_10 success_11))))))
 (let (($x4149 (= f_10 coinbase)))
 (and (and (>= xn_10 0) (>= w_11 0)) (and (>= aw_10_0 0) (>= aw_10_1 0) (>= aw_10_2 0)) (>= block_num_11 block_num_10) (ite $x4149 $x4162 $x4176))))))))))))))))))
(assert
 (let (($x4221 (= t_success_11_0 success_12)))
 (let (($x4206 (= aw_12_2 aw_11_2)))
 (let (($x4205 (= aw_12_1 aw_11_1)))
 (let (($x4204 (= aw_12_0 aw_11_0)))
 (let (($x4207 (and $x4204 $x4205 $x4206)))
 (let (($x4203 (= w_12 t_w_11_0)))
 (let (($x4200 (= err_12 false)))
 (let (($x4220 (ite (and (>= t_w_11_0 10)) (and (= t_success_11_0 true) true) (and true true (= t_success_11_0 success_11)))))
 (let (($x4202 (= t_w_11_0 (+ w_11 xn_11))))
 (let (($x4213 (<= xa_11 2)))
 (let (($x4212 (>= xa_11 1)))
 (let (($x4225 (and $x4212 $x4213 (and $x4202 (and $x4220 $x4200 true (and $x4203 $x4207 $x4221))))))
 (let (($x4199 (= xa_11 0)))
 (let (($x4211 (and $x4199 (and $x4200 $x4202 (and $x4203 $x4207 (= success_11 success_12))))))
 (let (($x4198 (= f_11 coinbase)))
 (and (and (>= xn_11 0) (>= w_12 0)) (and (>= aw_11_0 0) (>= aw_11_1 0) (>= aw_11_2 0)) (>= block_num_12 block_num_11) (ite $x4198 $x4211 $x4225))))))))))))))))))
(assert
 (let (($x4266 (exists ((xa_q Int) )(let (($x4261 (forall ((xn_q0 Int) (f_q0 Proc) (wq0 Int) (awq0_0 Int) (awq0_1 Int) (awq0_2 Int) (t_wq0_0 Int) (t_wq0_1 Int) (t_wq0_2 Int) (t_wq0_3 Int) (t_wq0_4 Int) (t_wq0_5 Int) (t_wq0_6 Int) (t_wq0_7 Int) (t_wq0_8 Int) (t_wq0_9 Int) (t_wq0_10 Int) (t_wq0_11 Int) (t_wq0_12 Int) (t_wq0_13 Int) (t_wq0_14 Int) (t_wq0_15 Int) (t_wq0_16 Int) (t_wq0_17 Int) (t_wq0_18 Int) (t_wq0_19 Int) (t_wq0_20 Int) (t_wq0_21 Int) (t_wq0_22 Int) (t_wq0_23 Int) (t_wq0_24 Int) (t_wq0_25 Int) (t_wq0_26 Int) (t_wq0_27 Int) (t_wq0_28 Int) (t_wq0_29 Int) (t_wq0_30 Int) (t_wq0_31 Int) (t_wq0_32 Int) (t_wq0_33 Int) (t_wq0_34 Int) (t_wq0_35 Int) (t_wq0_36 Int) (t_wq0_37 Int) (t_wq0_38 Int) (t_wq0_39 Int) (t_wq0_40 Int) (t_wq0_41 Int) (t_wq0_42 Int) (t_wq0_43 Int) (t_wq0_44 Int) (t_wq0_45 Int) (t_wq0_46 Int) (t_wq0_47 Int) (t_wq0_48 Int) (t_wq0_49 Int) (t_awq0_0_0 Int) (t_awq0_0_1 Int) (t_awq0_0_2 Int) (t_awq0_1_0 Int) (t_awq0_1_1 Int) (t_awq0_1_2 Int) (t_awq0_2_0 Int) (t_awq0_2_1 Int) (t_awq0_2_2 Int) (t_awq0_3_0 Int) (t_awq0_3_1 Int) (t_awq0_3_2 Int) (t_awq0_4_0 Int) (t_awq0_4_1 Int) (t_awq0_4_2 Int) (t_awq0_5_0 Int) (t_awq0_5_1 Int) (t_awq0_5_2 Int) (t_awq0_6_0 Int) (t_awq0_6_1 Int) (t_awq0_6_2 Int) (t_awq0_7_0 Int) (t_awq0_7_1 Int) (t_awq0_7_2 Int) (t_awq0_8_0 Int) (t_awq0_8_1 Int) (t_awq0_8_2 Int) (t_awq0_9_0 Int) (t_awq0_9_1 Int) (t_awq0_9_2 Int) (t_awq0_10_0 Int) (t_awq0_10_1 Int) (t_awq0_10_2 Int) (t_awq0_11_0 Int) (t_awq0_11_1 Int) (t_awq0_11_2 Int) (t_awq0_12_0 Int) (t_awq0_12_1 Int) (t_awq0_12_2 Int) (t_awq0_13_0 Int) (t_awq0_13_1 Int) (t_awq0_13_2 Int) (t_awq0_14_0 Int) (t_awq0_14_1 Int) (t_awq0_14_2 Int) (t_awq0_15_0 Int) (t_awq0_15_1 Int) (t_awq0_15_2 Int) (t_awq0_16_0 Int) (t_awq0_16_1 Int) (t_awq0_16_2 Int) (t_awq0_17_0 Int) (t_awq0_17_1 Int) (t_awq0_17_2 Int) (t_awq0_18_0 Int) (t_awq0_18_1 Int) (t_awq0_18_2 Int) (t_awq0_19_0 Int) (t_awq0_19_1 Int) (t_awq0_19_2 Int) (t_awq0_20_0 Int) (t_awq0_20_1 Int) (t_awq0_20_2 Int) (t_awq0_21_0 Int) (t_awq0_21_1 Int) (t_awq0_21_2 Int) (t_awq0_22_0 Int) (t_awq0_22_1 Int) (t_awq0_22_2 Int) (t_awq0_23_0 Int) (t_awq0_23_1 Int) (t_awq0_23_2 Int) (t_awq0_24_0 Int) (t_awq0_24_1 Int) (t_awq0_24_2 Int) (t_awq0_25_0 Int) (t_awq0_25_1 Int) (t_awq0_25_2 Int) (t_awq0_26_0 Int) (t_awq0_26_1 Int) (t_awq0_26_2 Int) (t_awq0_27_0 Int) (t_awq0_27_1 Int) (t_awq0_27_2 Int) (t_awq0_28_0 Int) (t_awq0_28_1 Int) (t_awq0_28_2 Int) (t_awq0_29_0 Int) (t_awq0_29_1 Int) (t_awq0_29_2 Int) (t_awq0_30_0 Int) (t_awq0_30_1 Int) (t_awq0_30_2 Int) (t_awq0_31_0 Int) (t_awq0_31_1 Int) (t_awq0_31_2 Int) (t_awq0_32_0 Int) (t_awq0_32_1 Int) (t_awq0_32_2 Int) (t_awq0_33_0 Int) (t_awq0_33_1 Int) (t_awq0_33_2 Int) (t_awq0_34_0 Int) (t_awq0_34_1 Int) (t_awq0_34_2 Int) (t_awq0_35_0 Int) (t_awq0_35_1 Int) (t_awq0_35_2 Int) (t_awq0_36_0 Int) (t_awq0_36_1 Int) (t_awq0_36_2 Int) (t_awq0_37_0 Int) (t_awq0_37_1 Int) (t_awq0_37_2 Int) (t_awq0_38_0 Int) (t_awq0_38_1 Int) (t_awq0_38_2 Int) (t_awq0_39_0 Int) (t_awq0_39_1 Int) (t_awq0_39_2 Int) (t_awq0_40_0 Int) (t_awq0_40_1 Int) (t_awq0_40_2 Int) (t_awq0_41_0 Int) (t_awq0_41_1 Int) (t_awq0_41_2 Int) (t_awq0_42_0 Int) (t_awq0_42_1 Int) (t_awq0_42_2 Int) (t_awq0_43_0 Int) (t_awq0_43_1 Int) (t_awq0_43_2 Int) (t_awq0_44_0 Int) (t_awq0_44_1 Int) (t_awq0_44_2 Int) (t_awq0_45_0 Int) (t_awq0_45_1 Int) (t_awq0_45_2 Int) (t_awq0_46_0 Int) (t_awq0_46_1 Int) (t_awq0_46_2 Int) (t_awq0_47_0 Int) (t_awq0_47_1 Int) (t_awq0_47_2 Int) (t_awq0_48_0 Int) (t_awq0_48_1 Int) (t_awq0_48_2 Int) (t_awq0_49_0 Int) (t_awq0_49_1 Int) (t_awq0_49_2 Int) (err_q0 Bool) (successq0 Bool) (t_successq0_0 Bool) (t_successq0_1 Bool) (t_successq0_2 Bool) (t_successq0_3 Bool) (t_successq0_4 Bool) (t_successq0_5 Bool) (t_successq0_6 Bool) (t_successq0_7 Bool) (t_successq0_8 Bool) (t_successq0_9 Bool) (t_successq0_10 Bool) (t_successq0_11 Bool) (t_successq0_12 Bool) (t_successq0_13 Bool) (t_successq0_14 Bool) (t_successq0_15 Bool) (t_successq0_16 Bool) (t_successq0_17 Bool) (t_successq0_18 Bool) (t_successq0_19 Bool) (t_successq0_20 Bool) (t_successq0_21 Bool) (t_successq0_22 Bool) (t_successq0_23 Bool) (t_successq0_24 Bool) (t_successq0_25 Bool) (t_successq0_26 Bool) (t_successq0_27 Bool) (t_successq0_28 Bool) (t_successq0_29 Bool) (t_successq0_30 Bool) (t_successq0_31 Bool) (t_successq0_32 Bool) (t_successq0_33 Bool) (t_successq0_34 Bool) (t_successq0_35 Bool) (t_successq0_36 Bool) (t_successq0_37 Bool) (t_successq0_38 Bool) (t_successq0_39 Bool) (t_successq0_40 Bool) (t_successq0_41 Bool) (t_successq0_42 Bool) (t_successq0_43 Bool) (t_successq0_44 Bool) (t_successq0_45 Bool) (t_successq0_46 Bool) (t_successq0_47 Bool) (t_successq0_48 Bool) (t_successq0_49 Bool) )(let (($x4545 (and (= awq0_0 aw_12_0) (= awq0_1 aw_12_1) (= awq0_2 aw_12_2))))
(let (($x4546 (= wq0 t_wq0_0)))
(let (($x4548 (= err_q0 false)))
(let (($x4555 (ite (and (>= t_wq0_0 10)) (and (= t_successq0_0 true) true) (and true true (= t_successq0_0 success_12)))))
(let (($x4558 (= t_wq0_0 (+ w_12 xn_q0))))
(let (($x4254 (and (>= xa_q 1) (<= xa_q 2) (and $x4558 (and $x4555 $x4548 true (and $x4546 $x4545 (= t_successq0_0 successq0)))))))
(let (($x4256 (and (= xa_q 0) (and $x4548 $x4558 (and $x4546 $x4545 (= success_12 successq0))))))
(let (($x4258 (and (and (>= xn_q0 0) (>= wq0 0)) (and (>= aw_12_0 0) (>= aw_12_1 0) (>= aw_12_2 0)) (>= block_num_12 block_num_12) (ite (= f_q0 coinbase) $x4256 $x4254))))
(or (not $x4258) (not successq0)))))))))))
))
(and (and (>= xa_q 1) (<= xa_q 2)) (> w_12 0) $x4261)))
))
(and $x4266)))
(check-sat)

(get-model)